\Problem name: Subproblem                                                       
\FICO Xpress v9.4.0, Hyper, written 16:28:58, Apr 15, 2025

Minimize

__OBJ___: 0

Subject To
R1: - 0.36400549446402586 y_0_0 >= 0.18519968247026408 
R2: - 0.36400549446402586 y_0_1 >= -0.19400560054722588 
R3: - 0.3535533905932738 y_1_0 >= 0.14606958467724335 
R4: - 0.3535533905932738 y_1_1 >= -0.26753015418493353 
R5: - 0.2690724809414741 y_2_0 >= 0.2268094706977523 
R6: - 0.2690724809414741 y_2_1 >= -0.3900299638009591 
R7: - 0.36400549446402586 y_3_0 >= 0.20279726505434292 
R8: - 0.36400549446402586 y_3_1 >= -0.09493297047211385 
R9: - 0.36400549446402586 z_0_1 >= -0.14184507964609583 
R10: y_0_0 + y_0_1 = 1 
R11: y_1_0 + y_1_1 = 1 
R12: y_2_0 + y_2_1 = 1 
R13: y_3_0 + y_3_1 = 1 
R14: y_0_0 + y_1_0 + y_2_0 + y_3_0 + z_0_1 = 3 
R15: y_0_1 + y_1_1 + y_2_1 + y_3_1 + z_0_1 = 3 
R16: z_0_1 = 1 
R17: y_0_0 + y_1_0 + y_2_0 + y_3_0 <= 2 
R18: y_0_1 + y_1_1 + y_2_1 + y_3_1 <= 2 
R19: y_0_0 <= 1 
R20: y_0_1 <= 1 
R21: y_1_0 <= 1 
R22: y_1_1 <= 1 
R23: y_2_0 <= 1 
R24: y_2_1 <= 1 
R25: y_3_0 <= 1 
R26: y_3_1 <= 1 
R27: z_0_1 <= 1 

Bounds

End
